c Arquivo convertido de bcsstm03.mtx
p edge 112 112
e 1 1
e 2 2
e 3 3
e 4 4
e 5 5
e 6 6
e 7 7
e 8 8
e 9 9
e 10 10
e 11 11
e 12 12
e 13 13
e 14 14
e 15 15
e 16 16
e 17 17
e 18 18
e 19 19
e 20 20
e 21 21
e 22 22
e 23 23
e 24 24
e 25 25
e 26 26
e 27 27
e 28 28
e 29 29
e 30 30
e 31 31
e 32 32
e 33 33
e 34 34
e 35 35
e 36 36
e 37 37
e 38 38
e 39 39
e 40 40
e 41 41
e 42 42
e 43 43
e 44 44
e 45 45
e 46 46
e 47 47
e 48 48
e 49 49
e 50 50
e 51 51
e 52 52
e 53 53
e 54 54
e 55 55
e 56 56
e 57 57
e 58 58
e 59 59
e 60 60
e 61 61
e 62 62
e 63 63
e 64 64
e 65 65
e 66 66
e 67 67
e 68 68
e 69 69
e 70 70
e 71 71
e 72 72
e 73 73
e 74 74
e 75 75
e 76 76
e 77 77
e 78 78
e 79 79
e 80 80
e 81 81
e 82 82
e 83 83
e 84 84
e 85 85
e 86 86
e 87 87
e 88 88
e 89 89
e 90 90
e 91 91
e 92 92
e 93 93
e 94 94
e 95 95
e 96 96
e 97 97
e 98 98
e 99 99
e 100 100
e 101 101
e 102 102
e 103 103
e 104 104
e 105 105
e 106 106
e 107 107
e 108 108
e 109 109
e 110 110
e 111 111
e 112 112
